
Gurobi 10.0.1 (win64) logging started Thu May 18 16:25:15 2023

Set parameter LogFile to value "results/log/Fattahi_setup_11_modificated.log"
Gurobi Optimizer version 10.0.1 build v10.0.1rc0 (win64)

CPU model: AMD Ryzen 7 3700X 8-Core Processor, instruction set [SSE2|AVX|AVX2]
Thread count: 8 physical cores, 16 logical processors, using up to 16 threads

Optimize a model with 287 rows, 292 columns and 1096 nonzeros
Model fingerprint: 0xf74ae38b
Variable types: 0 continuous, 292 integer (258 binary)
Coefficient statistics:
  Matrix range     [1e+00, 1e+09]
  Objective range  [1e+00, 1e+00]
  Bounds range     [1e+00, 1e+00]
  RHS range        [1e+00, 3e+09]
Warning: Model contains large matrix coefficients
Warning: Model contains large rhs
         Consider reformulating model or setting NumericFocus parameter
         to avoid numerical issues.
Presolve removed 67 rows and 178 columns
Presolve time: 0.00s
Presolved: 220 rows, 114 columns, 969 nonzeros
Variable types: 0 continuous, 114 integer (81 binary)

Root relaxation: objective 1.638387e+03, 39 iterations, 0.00 seconds (0.00 work units)

    Nodes    |    Current Node    |     Objective Bounds      |     Work
 Expl Unexpl |  Obj  Depth IntInf | Incumbent    BestBd   Gap | It/Node Time

     0     0 1638.38712    0   21          - 1638.38712      -     -    0s
H    0     0                    3168.0000000 1638.38712  48.3%     -    0s
H    0     0                    3059.0000000 1641.00002  46.4%     -    0s
     0     0 1641.00002    0   32 3059.00000 1641.00002  46.4%     -    0s
H    0     0                    3055.0000000 1641.00002  46.3%     -    0s
H    0     0                    2773.0000000 1641.00002  40.8%     -    0s
H    0     0                    2742.0000000 1652.42284  39.7%     -    0s
     0     0 1652.42284    0   36 2742.00000 1652.42284  39.7%     -    0s
     0     0 1652.42284    0   36 2742.00000 1652.42284  39.7%     -    0s
     0     0 1666.61539    0   26 2742.00000 1666.61539  39.2%     -    0s
     0     0 1666.88974    0   26 2742.00000 1666.88974  39.2%     -    0s
H    0     0                    2590.0000000 1666.88974  35.6%     -    0s
     0     0 1666.88974    0   26 2590.00000 1666.88974  35.6%     -    0s
H    0     0                    2442.0000000 1666.88974  31.7%     -    0s
H    0     0                    2329.0000000 1666.88974  28.4%     -    0s
     0     0 1666.90285    0   26 2329.00000 1666.90285  28.4%     -    0s
     0     0 1666.90866    0   26 2329.00000 1666.90866  28.4%     -    0s
     0     0 1666.90866    0   26 2329.00000 1666.90866  28.4%     -    0s
     0     0 1666.90866    0   26 2329.00000 1666.90866  28.4%     -    0s
     0     0 1666.95619    0   26 2329.00000 1666.95619  28.4%     -    0s
     0     0 1666.95619    0   26 2329.00000 1666.95619  28.4%     -    0s
     0     0 1669.61539    0   25 2329.00000 1669.61539  28.3%     -    0s
     0     0 1669.61539    0   25 2329.00000 1669.61539  28.3%     -    0s
H    0     0                    2191.0000000 1669.61539  23.8%     -    0s
     0     0 1669.61539    0   25 2191.00000 1669.61539  23.8%     -    0s
     0     0 1669.61539    0   25 2191.00000 1669.61539  23.8%     -    0s
     0     2 1669.61539    0   25 2191.00000 1669.61539  23.8%     -    0s
H  113   114                    2175.0000000 1682.99355  22.6%   4.2    0s
H  175   159                    2142.0000000 1682.99355  21.4%   4.0    0s
H  191   159                    2113.0000000 1682.99355  20.4%   4.0    0s
H  201   159                    2071.0000000 1682.99355  18.7%   4.0    0s
H  208   159                    2043.0000000 1682.99355  17.6%   4.0    0s

Cutting planes:
  Learned: 26
  Gomory: 3
  Lift-and-project: 2
  Implied bound: 15
  MIR: 2
  Flow cover: 14
  Inf proof: 17

Explored 7550 nodes (32103 simplex iterations) in 0.37 seconds (0.18 work units)
Thread count was 16 (of 16 available processors)

Solution count 10: 2043 2071 2113 ... 2742

Optimal solution found (tolerance 1.00e-04)
Best objective 2.043000000000e+03, best bound 2.043000000000e+03, gap 0.0000%
Warning: variable name "y[job:0, stage:0, machine:1]" has a space
Warning: constraint name "precedence between 0,1 to 0,0 if x_[j,l,h,z,i]=1" has a space
Warning: to let Gurobi read it back, use rlp format
Warning: variable name "y[job:0, stage:0, machine:1]" has a space
Warning: constraint name "precedence between 0,1 to 0,0 if x_[j,l,h,z,i]=1" has a space
Warning: default variable names used to write mps file
Warning: default constraint names used to write mps file
Warning: variable name "y[job:0, stage:0, machine:1]" has a space
Warning: default variable names used to write solution file
